Optimal - objective value 458.00000000
      2 x0_2                   1                       0
     10 x0_10                  1                    51.9
     18 x0_18                  1                    15.7
     19 x0_19                  1                    26.3
     21 x1_1                   1                      21
     25 x1_5                   1                       9
     33 x1_13                  1                       2
     44 x2_4                   1                      15
     46 x2_6                   1                       0
     48 x2_8                   1                      59
     49 x2_9                   1                       1
     57 x2_17                  1                       0
     71 x3_11                  1                       1
     74 x3_14                  1                      63
     75 x3_15                  1                       3
     76 x3_16                  1                      15
     80 x4_0                   1                       8
     83 x4_3                   1                      11
     87 x4_7                   1                       9
     92 x4_12                  1                      17
